c random formula
p cnf 10 35
4 -5 -7 0
2 4 10 0
-3 2 -4 0
-2 -6 -4 0
-1 -5 10 0
6 -8 -7 0
-1 -8 -2 0
-5 10 -8 0
-8 -1 -9 0
5 8 -6 0
-9 4 7 0
8 -6 -4 0
9 -5 -10 0
-9 6 -5 0
-10 7 9 0
8 -6 -5 0
-7 5 6 0
-4 -1 7 0
3 10 4 0
5 -9 -8 0
-3 -10 9 0
2 9 1 0
-7 6 5 0
-2 6 10 0
3 5 -1 0
7 8 9 0
3 -2 -4 0
5 -4 1 0
2 -6 7 0
5 -3 -7 0
-8 2 -5 0
5 2 -3 0
2 8 -10 0
-8 5 -7 0
6 8 1 0
